50
    51    31    56    23     2     7    45    59    47    95     4    27    27    58    68    45    99    97    41    25    38    53    90    65    30    11    49    57    80    93    18    82     7    64    61    11    47    28     9     7    50    31    58    25    84    59    70     6    30    39
     6     1    10     4     6     6     8     5     2     3     7    10     8     8     2     4     4     1     6     6     7     1     4     6     5     3     7     9     2    10    10     6     8     1     5     9     7     5     4     3     7     4    10     3    10     2     3     1     5     4
  1401   752  1719   519  1690   587   607  1906  1081  1286  1820  1483  1217   665  1178  1761  1713     0   560  1120  1926  1435  1191   795  1587   831   339  1695   308     0   403   107   476     0  1090   320     0   702  1742  1292  1893  1629   275   248   404   800    26  1923  1800  1209
